(set-logic HORN)
(declare-fun |inv| (Int Int Int) Bool)
(assert (forall ((i Int) (n Int) (sum Int) (ip Int) (np Int) (sump Int)) (=> (and (= i 0) (>= n 0) (<= n 100) (= sum 0)) (inv i n sum))))
(assert (forall ((i Int) (n Int) (sum Int) (ip Int) (np Int) (sump Int)) (=> (and (inv i n sum) (< (+ i (* -1 n)) 0)   (and (= ip (+ i 1)) (= np n) (= sump (+ i sum)))) (inv ip np sump))))
(assert (forall ((i Int) (n Int) (sum Int) (ip Int) (np Int) (sump Int)) (=> (and (not (< (+ i (* -1 n)) 0)) (inv i n sum)) (>= sum 0))))
(check-sat)
(get-model)